Route #1: 48 33 19 3 35
Route #2: 8 12 37 32 31 27 41
Route #3: 11 43 26 28 7 6
Route #4: 39 29 13 42 14 4
Route #5: 18
Route #6: 17 10 34 38 2 16 40 36 5
Route #7: 50 23 47 45 25 30 24 22 46
Route #8: 21 44 20 1 9 49 15
Cost 1016
Time 0.178979
Tempo = 0.2184594999998808